;; sequence(s): A81623
;; terms: 1 1 6 126 12870 5200300 9075135300 63205303218876 1832624140942590534 212392290424395860814420 100891344545564193334812497256 191645966716130525165099506263706416 1480212998448786189993816895482588794876100
;; small program: loop((x * y) div (y - (y div 2)), x * x, 1)
;; fast program: loop(2 * ((x - (x div y)) + x), (1 + (x * x)) div 2, 1) div (1 + (x mod 2))
(set-logic UFNIA)
(declare-fun f0 (Int Int) Int)
(declare-fun g0 (Int) Int)
(declare-fun h0 () Int)
(declare-fun u0 (Int Int) Int)
(declare-fun v0 (Int) Int)
(declare-fun small (Int) Int)
(declare-fun f1 (Int Int) Int)
(declare-fun g1 (Int) Int)
(declare-fun h1 () Int)
(declare-fun u1 (Int Int) Int)
(declare-fun v1 (Int) Int)
(declare-fun fast (Int) Int)
(assert (forall ((x Int) (y Int)) (= (f0 x y) (div (* x y) (- y (div y 2))))))
(assert (forall ((x Int)) (= (g0 x) (* x x))))
(assert (= h0 1))
(assert (forall ((x Int) (y Int)) (= (u0 x y) (ite (<= x 0) y (f0 (u0 (- x 1) y) x)))))
(assert (forall ((x Int)) (= (v0 x) (u0 (g0 x) h0))))
(assert (forall ((x Int)) (= (small x) (v0 x))))
(assert (forall ((x Int) (y Int)) (= (f1 x y) (* 2 (+ (- x (div x y)) x)))))
(assert (forall ((x Int)) (= (g1 x) (div (+ 1 (* x x)) 2))))
(assert (= h1 1))
(assert (forall ((x Int) (y Int)) (= (u1 x y) (ite (<= x 0) y (f1 (u1 (- x 1) y) x)))))
(assert (forall ((x Int)) (= (v1 x) (u1 (g1 x) h1))))
(assert (forall ((x Int)) (= (fast x) (div (v1 x) (+ 1 (mod x 2))))))
(assert (exists ((c Int)) (and (>= c 0) (not (= (small c) (fast c))))))
(check-sat)
